\ENCODING=ISO-8859-1
\Problem name: 

Minimize
 obj: 6 x0 + 5 x1 + 10 x2 + 8 x3 + 7 x4
Subject To
 NUTRI_0: 30 x0 + 20 x1 + 40 x2 + 75 x3 + 10 x4 >= 200
 NUTRI_1: 40 x0 + 25 x1 + 20 x2 + 150 x3 + 60 x4 >= 100
 NUTRI_2: 55 x0 + 33 x1 + 30 x2 + 20 x3 + 78 x4 >= 150
Bounds
 0 <= x0 <= 10000
 0 <= x1 <= 10000
 0 <= x2 <= 10000
 0 <= x3 <= 10000
 0 <= x4 <= 10000
End
